words_hard_train/1479.qaiger
aag 153 24 0 1 129
2
4
12
20
30
38
50
58
72
86
94
108
122
130
144
162
170
184
202
204
212
220
236
262
307
6 2 4
8 3 5
10 7 9
14 11 13
16 10 12
18 15 17
22 20 2
24 19 23
26 18 22
28 25 27
32 29 31
34 21 3
36 35 23
40 36 38
42 33 40
44 28 30
46 43 45
48 27 17
52 9 50
54 8 51
56 53 55
60 57 59
62 56 58
64 61 63
66 48 65
68 49 64
70 67 69
74 71 73
76 70 72
78 75 77
80 47 78
82 81 77
84 69 63
88 55 86
90 54 87
92 89 91
96 93 95
98 92 94
100 97 99
102 84 101
104 85 100
106 103 105
110 107 109
112 106 108
114 111 113
116 83 114
118 117 113
120 105 99
124 91 122
126 90 123
128 125 127
132 129 131
134 128 130
136 133 135
138 120 137
140 121 136
142 139 141
146 143 145
148 142 144
150 147 149
152 118 151
154 119 150
156 153 155
158 155 149
160 141 135
164 127 162
166 126 163
168 165 167
172 169 171
174 168 170
176 173 175
178 160 177
180 161 176
182 179 181
186 183 185
188 182 184
190 187 189
192 158 191
194 33 45
196 195 39
198 197 41
200 193 199
206 203 204
208 202 205
210 207 209
214 210 213
216 211 212
218 215 217
222 166 221
224 218 223
226 219 222
228 225 227
230 181 175
232 167 220
234 233 223
238 235 237
240 234 236
242 239 241
244 231 242
246 245 241
248 228 246
250 229 247
252 249 251
254 159 190
256 255 189
258 230 243
260 259 245
264 261 263
266 260 262
268 265 267
270 257 268
272 271 267
274 253 273
276 200 275
278 157 276
280 82 115
282 281 117
284 46 79
286 285 81
288 283 287
290 195 36
292 288 291
294 292 255
296 256 269
298 297 271
300 294 299
302 252 272
304 300 303
306 278 304
i0 1 x1[0]
i1 1 x1[1]
i2 2 y1[1]
i3 2 y1[0]
i4 2 y2[1]
i5 2 y2[0]
i6 1 x1[2]
i7 2 y1[2]
i8 2 y2[2]
i9 1 x1[3]
i10 2 y1[3]
i11 2 y2[3]
i12 1 x1[4]
i13 2 y1[4]
i14 2 y2[4]
i15 1 x1[5]
i16 2 y1[5]
i17 2 y2[5]
i18 2 y2[7]
i19 2 y1[7]
i20 1 x1[7]
i21 1 x1[6]
i22 2 y1[6]
i23 2 y2[6]
o0 bool[0]
c
simplified
  !=
    add
      2 y2
      subtract
        2 y1
        1 x1
    << 5
      133
