words_hard_train/1479.qaiger.qdimacs
p cnf 153 388
a 1 2 106 43 110 81 25 61 0
e 3 4 5 6 7 8 9 10 11 12 13 14 15 16 17 18 19 20 21 22 23 24 26 27 28 29 30 31 32 33 34 35 36 37 38 39 40 41 42 44 45 46 47 48 49 50 51 52 53 54 55 56 57 58 59 60 62 63 64 65 66 67 68 69 70 71 72 73 74 75 76 77 78 79 80 82 83 84 85 86 87 88 89 90 91 92 93 94 95 96 97 98 99 100 101 102 103 104 105 107 108 109 111 112 113 114 115 116 117 118 119 120 121 122 123 124 125 126 127 128 129 130 131 132 133 134 135 136 137 138 139 140 141 142 143 144 145 146 147 148 149 150 151 152 153 0
-1 -2 3 0
1 -3 0
2 -3 0
1 2 4 0
-1 -4 0
-2 -4 0
3 4 5 0
-3 -5 0
-4 -5 0
5 6 7 0
-5 -7 0
-6 -7 0
-5 -6 8 0
5 -8 0
6 -8 0
7 8 9 0
-7 -9 0
-8 -9 0
-10 -1 11 0
10 -11 0
1 -11 0
9 11 12 0
-9 -12 0
-11 -12 0
-9 -11 13 0
9 -13 0
11 -13 0
12 13 14 0
-12 -14 0
-13 -14 0
14 15 16 0
-14 -16 0
-15 -16 0
10 1 17 0
-10 -17 0
-1 -17 0
17 11 18 0
-17 -18 0
-11 -18 0
-18 -19 20 0
18 -20 0
19 -20 0
16 -20 21 0
-16 -21 0
20 -21 0
-14 -15 22 0
14 -22 0
15 -22 0
21 22 23 0
-21 -23 0
-22 -23 0
13 8 24 0
-13 -24 0
-8 -24 0
4 -25 26 0
-4 -26 0
25 -26 0
-4 25 27 0
4 -27 0
-25 -27 0
26 27 28 0
-26 -28 0
-27 -28 0
28 29 30 0
-28 -30 0
-29 -30 0
-28 -29 31 0
28 -31 0
29 -31 0
30 31 32 0
-30 -32 0
-31 -32 0
-24 32 33 0
24 -33 0
-32 -33 0
24 -32 34 0
-24 -34 0
32 -34 0
33 34 35 0
-33 -35 0
-34 -35 0
35 36 37 0
-35 -37 0
-36 -37 0
-35 -36 38 0
35 -38 0
36 -38 0
37 38 39 0
-37 -39 0
-38 -39 0
23 -39 40 0
-23 -40 0
39 -40 0
40 38 41 0
-40 -41 0
-38 -41 0
34 31 42 0
-34 -42 0
-31 -42 0
27 -43 44 0
-27 -44 0
43 -44 0
-27 43 45 0
27 -45 0
-43 -45 0
44 45 46 0
-44 -46 0
-45 -46 0
46 47 48 0
-46 -48 0
-47 -48 0
-46 -47 49 0
46 -49 0
47 -49 0
48 49 50 0
-48 -50 0
-49 -50 0
-42 50 51 0
42 -51 0
-50 -51 0
42 -50 52 0
-42 -52 0
50 -52 0
51 52 53 0
-51 -53 0
-52 -53 0
53 54 55 0
-53 -55 0
-54 -55 0
-53 -54 56 0
53 -56 0
54 -56 0
55 56 57 0
-55 -57 0
-56 -57 0
41 -57 58 0
-41 -58 0
57 -58 0
58 56 59 0
-58 -59 0
-56 -59 0
52 49 60 0
-52 -60 0
-49 -60 0
45 -61 62 0
-45 -62 0
61 -62 0
-45 61 63 0
45 -63 0
-61 -63 0
62 63 64 0
-62 -64 0
-63 -64 0
64 65 66 0
-64 -66 0
-65 -66 0
-64 -65 67 0
64 -67 0
65 -67 0
66 67 68 0
-66 -68 0
-67 -68 0
-60 68 69 0
60 -69 0
-68 -69 0
60 -68 70 0
-60 -70 0
68 -70 0
69 70 71 0
-69 -71 0
-70 -71 0
71 72 73 0
-71 -73 0
-72 -73 0
-71 -72 74 0
71 -74 0
72 -74 0
73 74 75 0
-73 -75 0
-74 -75 0
-59 75 76 0
59 -76 0
-75 -76 0
59 -75 77 0
-59 -77 0
75 -77 0
76 77 78 0
-76 -78 0
-77 -78 0
77 74 79 0
-77 -79 0
-74 -79 0
70 67 80 0
-70 -80 0
-67 -80 0
63 -81 82 0
-63 -82 0
81 -82 0
-63 81 83 0
63 -83 0
-81 -83 0
82 83 84 0
-82 -84 0
-83 -84 0
84 85 86 0
-84 -86 0
-85 -86 0
-84 -85 87 0
84 -87 0
85 -87 0
86 87 88 0
-86 -88 0
-87 -88 0
-80 88 89 0
80 -89 0
-88 -89 0
80 -88 90 0
-80 -90 0
88 -90 0
89 90 91 0
-89 -91 0
-90 -91 0
91 92 93 0
-91 -93 0
-92 -93 0
-91 -92 94 0
91 -94 0
92 -94 0
93 94 95 0
-93 -95 0
-94 -95 0
-79 95 96 0
79 -96 0
-95 -96 0
16 22 97 0
-16 -97 0
-22 -97 0
97 19 98 0
-97 -98 0
-19 -98 0
98 20 99 0
-98 -99 0
-20 -99 0
96 99 100 0
-96 -100 0
-99 -100 0
101 -102 103 0
-101 -103 0
102 -103 0
-101 102 104 0
101 -104 0
-102 -104 0
103 104 105 0
-103 -105 0
-104 -105 0
-105 106 107 0
105 -107 0
-106 -107 0
105 -106 108 0
-105 -108 0
106 -108 0
107 108 109 0
-107 -109 0
-108 -109 0
-83 110 111 0
83 -111 0
-110 -111 0
-109 111 112 0
109 -112 0
-111 -112 0
109 -111 113 0
-109 -113 0
111 -113 0
112 113 114 0
-112 -114 0
-113 -114 0
90 87 115 0
-90 -115 0
-87 -115 0
83 -110 116 0
-83 -116 0
110 -116 0
116 111 117 0
-116 -117 0
-111 -117 0
117 118 119 0
-117 -119 0
-118 -119 0
-117 -118 120 0
117 -120 0
118 -120 0
119 120 121 0
-119 -121 0
-120 -121 0
115 -121 122 0
-115 -122 0
121 -122 0
122 120 123 0
-122 -123 0
-120 -123 0
-114 -123 124 0
114 -124 0
123 -124 0
114 123 125 0
-114 -125 0
-123 -125 0
124 125 126 0
-124 -126 0
-125 -126 0
79 -95 127 0
-79 -127 0
95 -127 0
127 94 128 0
-127 -128 0
-94 -128 0
-115 121 129 0
115 -129 0
-121 -129 0
129 122 130 0
-129 -130 0
-122 -130 0
130 131 132 0
-130 -132 0
-131 -132 0
-130 -131 133 0
130 -133 0
131 -133 0
132 133 134 0
-132 -134 0
-133 -134 0
128 -134 135 0
-128 -135 0
134 -135 0
135 133 136 0
-135 -136 0
-133 -136 0
126 136 137 0
-126 -137 0
-136 -137 0
-100 137 138 0
100 -138 0
-137 -138 0
78 -138 139 0
-78 -139 0
138 -139 0
-41 57 140 0
41 -140 0
-57 -140 0
140 58 141 0
-140 -141 0
-58 -141 0
-23 39 142 0
23 -142 0
-39 -142 0
142 40 143 0
-142 -143 0
-40 -143 0
141 143 144 0
-141 -144 0
-143 -144 0
97 -18 145 0
-97 -145 0
18 -145 0
-144 145 146 0
144 -146 0
-145 -146 0
-146 127 147 0
146 -147 0
-127 -147 0
-128 134 148 0
128 -148 0
-134 -148 0
148 135 149 0
-148 -149 0
-135 -149 0
-147 149 150 0
147 -150 0
-149 -150 0
-126 -136 151 0
126 -151 0
136 -151 0
-150 151 152 0
150 -152 0
-151 -152 0
-139 -152 153 0
139 -153 0
152 -153 0
-153 0
